c Choco e747e1e
v <instantiation id='sol1' type='solution' ><list>Andrew[0] Andrew[1] Andrew[2] Andrew[3] PCA[0] PCA[1] PCA[2] PCA[3] PCB[0] PCB[1] PCB[2] PCB[3] PCC[0] PCC[1] PCC[2] PCC[3] PCD[0] PCD[1] PCD[2] PCD[3] processorsSecondaires[0] processorsSecondaires[1] processorsSecondaires[2] processorsSecondaires[3] processorsSecondaires[4] monitorsSecondaires[0] monitorsSecondaires[1] monitorsSecondaires[2] monitorsSecondaires[3] monitorsSecondaires[4] pricesSecondaires[0] pricesSecondaires[1] pricesSecondaires[2] pricesSecondaires[3] pricesSecondaires[4] PROCESSORS[0] PROCESSORS[1] PROCESSORS[2] PROCESSORS[3] PROCESSORS[4] processorsDomainSSS[0] processorsDomainSSS[1] processorsDomainSSS[2] processorsDomainSSS[3] processorsDomainSSS[4] XN[0] aux_gb[0] aux_gb[1] aux_gb[2] aux_gb[3] aux_gb[4] aux_gb[5] aux_gb[6] aux_gb[7] pricesSSS[0] pricesSSS[1] pricesSSS[2] pricesSSS[3] pricesSSS[4] </list><values>4 3 4 4 1 4 3 2 3 1 1 1 2 2 2 0 0 0 0 3 4 1 3 2 0 4 2 3 1 0 3 2 1 4 0 4 1 3 2 0 20 23 25 27 31 3 3 2 3 27 23 3 1349 1649 699 999 1149 1349 1649 </values></instantiation>

s SATISFIABLE
v <instantiation id='sol1' type='solution' ><list>Andrew[0] Andrew[1] Andrew[2] Andrew[3] PCA[0] PCA[1] PCA[2] PCA[3] PCB[0] PCB[1] PCB[2] PCB[3] PCC[0] PCC[1] PCC[2] PCC[3] PCD[0] PCD[1] PCD[2] PCD[3] processorsSecondaires[0] processorsSecondaires[1] processorsSecondaires[2] processorsSecondaires[3] processorsSecondaires[4] monitorsSecondaires[0] monitorsSecondaires[1] monitorsSecondaires[2] monitorsSecondaires[3] monitorsSecondaires[4] pricesSecondaires[0] pricesSecondaires[1] pricesSecondaires[2] pricesSecondaires[3] pricesSecondaires[4] PROCESSORS[0] PROCESSORS[1] PROCESSORS[2] PROCESSORS[3] PROCESSORS[4] processorsDomainSSS[0] processorsDomainSSS[1] processorsDomainSSS[2] processorsDomainSSS[3] processorsDomainSSS[4] XN[0] aux_gb[0] aux_gb[1] aux_gb[2] aux_gb[3] aux_gb[4] aux_gb[5] aux_gb[6] aux_gb[7] pricesSSS[0] pricesSSS[1] pricesSSS[2] pricesSSS[3] pricesSSS[4] </list><values>4 3 4 4 1 4 3 2 3 1 1 1 2 2 2 0 0 0 0 3 4 1 3 2 0 4 2 3 1 0 3 2 1 4 0 4 1 3 2 0 20 23 25 27 31 3 3 2 3 27 23 3 1349 1649 699 999 1149 1349 1649 </values></instantiation>
d FOUND SOLUTIONS 1

